c *********************************
c * Circuit generated by BenCGen
c *
c * Magnitude_41
c *
c * Ports with 1 gate(s): 43
c * Ports with 2 gate(s): 85
c * Ports with 3 gate(s): 1
c * Ports with 4 gate(s): 1
c * Ports with 5 gate(s): 1
c * Ports with 6 gate(s): 1
c * Ports with 7 gate(s): 1
c * Ports with 8 gate(s): 1
c * Ports with 9 gate(s): 1
c * Ports with 10 gate(s): 1
c * Ports with 11 gate(s): 1
c * Ports with 12 gate(s): 1
c * Ports with 13 gate(s): 1
c * Ports with 14 gate(s): 1
c * Ports with 15 gate(s): 1
c * Ports with 16 gate(s): 1
c * Ports with 17 gate(s): 1
c * Ports with 18 gate(s): 1
c * Ports with 19 gate(s): 1
c * Ports with 20 gate(s): 1
c * Ports with 21 gate(s): 1
c * Ports with 22 gate(s): 1
c * Ports with 23 gate(s): 1
c * Ports with 24 gate(s): 1
c * Ports with 25 gate(s): 1
c * Ports with 26 gate(s): 1
c * Ports with 27 gate(s): 1
c * Ports with 28 gate(s): 1
c * Ports with 29 gate(s): 1
c * Ports with 30 gate(s): 1
c * Ports with 31 gate(s): 1
c * Ports with 32 gate(s): 1
c * Ports with 33 gate(s): 1
c * Ports with 34 gate(s): 1
c * Ports with 35 gate(s): 1
c * Ports with 36 gate(s): 1
c * Ports with 37 gate(s): 1
c * Ports with 38 gate(s): 1
c * Ports with 39 gate(s): 1
c * Ports with 40 gate(s): 1
c * Ports with 41 gate(s): 3
c * Total gates: 169
c *********************************
p cnf 251 1363
1 87 0
-1 -87 0
1 -86 0
87 -86 0
-1 -87 86 0
42 88 0
-42 -88 0
43 89 0
-43 -89 0
44 90 0
-44 -90 0
45 91 0
-45 -91 0
46 92 0
-46 -92 0
47 93 0
-47 -93 0
48 94 0
-48 -94 0
49 95 0
-49 -95 0
50 96 0
-50 -96 0
51 97 0
-51 -97 0
52 98 0
-52 -98 0
53 99 0
-53 -99 0
54 100 0
-54 -100 0
55 101 0
-55 -101 0
56 102 0
-56 -102 0
57 103 0
-57 -103 0
58 104 0
-58 -104 0
59 105 0
-59 -105 0
60 106 0
-60 -106 0
61 107 0
-61 -107 0
62 108 0
-62 -108 0
63 109 0
-63 -109 0
64 110 0
-64 -110 0
65 111 0
-65 -111 0
66 112 0
-66 -112 0
67 113 0
-67 -113 0
68 114 0
-68 -114 0
69 115 0
-69 -115 0
70 116 0
-70 -116 0
71 117 0
-71 -117 0
72 118 0
-72 -118 0
73 119 0
-73 -119 0
74 120 0
-74 -120 0
75 121 0
-75 -121 0
76 122 0
-76 -122 0
77 123 0
-77 -123 0
78 124 0
-78 -124 0
79 125 0
-79 -125 0
80 126 0
-80 -126 0
81 127 0
-81 -127 0
82 128 0
-82 -128 0
1 42 170 0
-1 42 -170 0
1 -42 -170 0
-1 -42 170 0
1 -129 0
88 -129 0
-1 -88 129 0
2 43 171 0
-2 43 -171 0
2 -43 -171 0
-2 -43 171 0
2 -130 0
89 -130 0
-2 -89 130 0
3 44 172 0
-3 44 -172 0
3 -44 -172 0
-3 -44 172 0
3 -131 0
90 -131 0
-3 -90 131 0
4 45 173 0
-4 45 -173 0
4 -45 -173 0
-4 -45 173 0
4 -132 0
91 -132 0
-4 -91 132 0
5 46 174 0
-5 46 -174 0
5 -46 -174 0
-5 -46 174 0
5 -133 0
92 -133 0
-5 -92 133 0
6 47 175 0
-6 47 -175 0
6 -47 -175 0
-6 -47 175 0
6 -134 0
93 -134 0
-6 -93 134 0
7 48 176 0
-7 48 -176 0
7 -48 -176 0
-7 -48 176 0
7 -135 0
94 -135 0
-7 -94 135 0
8 49 177 0
-8 49 -177 0
8 -49 -177 0
-8 -49 177 0
8 -136 0
95 -136 0
-8 -95 136 0
9 50 178 0
-9 50 -178 0
9 -50 -178 0
-9 -50 178 0
9 -137 0
96 -137 0
-9 -96 137 0
10 51 179 0
-10 51 -179 0
10 -51 -179 0
-10 -51 179 0
10 -138 0
97 -138 0
-10 -97 138 0
11 52 180 0
-11 52 -180 0
11 -52 -180 0
-11 -52 180 0
11 -139 0
98 -139 0
-11 -98 139 0
12 53 181 0
-12 53 -181 0
12 -53 -181 0
-12 -53 181 0
12 -140 0
99 -140 0
-12 -99 140 0
13 54 182 0
-13 54 -182 0
13 -54 -182 0
-13 -54 182 0
13 -141 0
100 -141 0
-13 -100 141 0
14 55 183 0
-14 55 -183 0
14 -55 -183 0
-14 -55 183 0
14 -142 0
101 -142 0
-14 -101 142 0
15 56 184 0
-15 56 -184 0
15 -56 -184 0
-15 -56 184 0
15 -143 0
102 -143 0
-15 -102 143 0
16 57 185 0
-16 57 -185 0
16 -57 -185 0
-16 -57 185 0
16 -144 0
103 -144 0
-16 -103 144 0
17 58 186 0
-17 58 -186 0
17 -58 -186 0
-17 -58 186 0
17 -145 0
104 -145 0
-17 -104 145 0
18 59 187 0
-18 59 -187 0
18 -59 -187 0
-18 -59 187 0
18 -146 0
105 -146 0
-18 -105 146 0
19 60 188 0
-19 60 -188 0
19 -60 -188 0
-19 -60 188 0
19 -147 0
106 -147 0
-19 -106 147 0
20 61 189 0
-20 61 -189 0
20 -61 -189 0
-20 -61 189 0
20 -148 0
107 -148 0
-20 -107 148 0
21 62 190 0
-21 62 -190 0
21 -62 -190 0
-21 -62 190 0
21 -149 0
108 -149 0
-21 -108 149 0
22 63 191 0
-22 63 -191 0
22 -63 -191 0
-22 -63 191 0
22 -150 0
109 -150 0
-22 -109 150 0
23 64 192 0
-23 64 -192 0
23 -64 -192 0
-23 -64 192 0
23 -151 0
110 -151 0
-23 -110 151 0
24 65 193 0
-24 65 -193 0
24 -65 -193 0
-24 -65 193 0
24 -152 0
111 -152 0
-24 -111 152 0
25 66 194 0
-25 66 -194 0
25 -66 -194 0
-25 -66 194 0
25 -153 0
112 -153 0
-25 -112 153 0
26 67 195 0
-26 67 -195 0
26 -67 -195 0
-26 -67 195 0
26 -154 0
113 -154 0
-26 -113 154 0
27 68 196 0
-27 68 -196 0
27 -68 -196 0
-27 -68 196 0
27 -155 0
114 -155 0
-27 -114 155 0
28 69 197 0
-28 69 -197 0
28 -69 -197 0
-28 -69 197 0
28 -156 0
115 -156 0
-28 -115 156 0
29 70 198 0
-29 70 -198 0
29 -70 -198 0
-29 -70 198 0
29 -157 0
116 -157 0
-29 -116 157 0
30 71 199 0
-30 71 -199 0
30 -71 -199 0
-30 -71 199 0
30 -158 0
117 -158 0
-30 -117 158 0
31 72 200 0
-31 72 -200 0
31 -72 -200 0
-31 -72 200 0
31 -159 0
118 -159 0
-31 -118 159 0
32 73 201 0
-32 73 -201 0
32 -73 -201 0
-32 -73 201 0
32 -160 0
119 -160 0
-32 -119 160 0
33 74 202 0
-33 74 -202 0
33 -74 -202 0
-33 -74 202 0
33 -161 0
120 -161 0
-33 -120 161 0
34 75 203 0
-34 75 -203 0
34 -75 -203 0
-34 -75 203 0
34 -162 0
121 -162 0
-34 -121 162 0
35 76 204 0
-35 76 -204 0
35 -76 -204 0
-35 -76 204 0
35 -163 0
122 -163 0
-35 -122 163 0
36 77 205 0
-36 77 -205 0
36 -77 -205 0
-36 -77 205 0
36 -164 0
123 -164 0
-36 -123 164 0
37 78 206 0
-37 78 -206 0
37 -78 -206 0
-37 -78 206 0
37 -165 0
124 -165 0
-37 -124 165 0
38 79 207 0
-38 79 -207 0
38 -79 -207 0
-38 -79 207 0
38 -166 0
125 -166 0
-38 -125 166 0
39 80 208 0
-39 80 -208 0
39 -80 -208 0
-39 -80 208 0
39 -167 0
126 -167 0
-39 -126 167 0
40 81 209 0
-40 81 -209 0
40 -81 -209 0
-40 -81 209 0
40 -168 0
127 -168 0
-40 -127 168 0
41 82 210 0
-41 82 -210 0
41 -82 -210 0
-41 -82 210 0
41 -169 0
128 -169 0
-41 -128 169 0
129 -211 0
171 -211 0
172 -211 0
173 -211 0
174 -211 0
175 -211 0
176 -211 0
177 -211 0
178 -211 0
179 -211 0
180 -211 0
181 -211 0
182 -211 0
183 -211 0
184 -211 0
185 -211 0
186 -211 0
187 -211 0
188 -211 0
189 -211 0
190 -211 0
191 -211 0
192 -211 0
193 -211 0
194 -211 0
195 -211 0
196 -211 0
197 -211 0
198 -211 0
199 -211 0
200 -211 0
201 -211 0
202 -211 0
203 -211 0
204 -211 0
205 -211 0
206 -211 0
207 -211 0
208 -211 0
209 -211 0
210 -211 0
-129 -171 -172 -173 -174 -175 -176 -177 -178 -179 -180 -181 -182 -183 -184 -185 -186 -187 -188 -189 -190 -191 -192 -193 -194 -195 -196 -197 -198 -199 -200 -201 -202 -203 -204 -205 -206 -207 -208 -209 -210 211 0
130 -212 0
172 -212 0
173 -212 0
174 -212 0
175 -212 0
176 -212 0
177 -212 0
178 -212 0
179 -212 0
180 -212 0
181 -212 0
182 -212 0
183 -212 0
184 -212 0
185 -212 0
186 -212 0
187 -212 0
188 -212 0
189 -212 0
190 -212 0
191 -212 0
192 -212 0
193 -212 0
194 -212 0
195 -212 0
196 -212 0
197 -212 0
198 -212 0
199 -212 0
200 -212 0
201 -212 0
202 -212 0
203 -212 0
204 -212 0
205 -212 0
206 -212 0
207 -212 0
208 -212 0
209 -212 0
210 -212 0
-130 -172 -173 -174 -175 -176 -177 -178 -179 -180 -181 -182 -183 -184 -185 -186 -187 -188 -189 -190 -191 -192 -193 -194 -195 -196 -197 -198 -199 -200 -201 -202 -203 -204 -205 -206 -207 -208 -209 -210 212 0
131 -213 0
173 -213 0
174 -213 0
175 -213 0
176 -213 0
177 -213 0
178 -213 0
179 -213 0
180 -213 0
181 -213 0
182 -213 0
183 -213 0
184 -213 0
185 -213 0
186 -213 0
187 -213 0
188 -213 0
189 -213 0
190 -213 0
191 -213 0
192 -213 0
193 -213 0
194 -213 0
195 -213 0
196 -213 0
197 -213 0
198 -213 0
199 -213 0
200 -213 0
201 -213 0
202 -213 0
203 -213 0
204 -213 0
205 -213 0
206 -213 0
207 -213 0
208 -213 0
209 -213 0
210 -213 0
-131 -173 -174 -175 -176 -177 -178 -179 -180 -181 -182 -183 -184 -185 -186 -187 -188 -189 -190 -191 -192 -193 -194 -195 -196 -197 -198 -199 -200 -201 -202 -203 -204 -205 -206 -207 -208 -209 -210 213 0
132 -214 0
174 -214 0
175 -214 0
176 -214 0
177 -214 0
178 -214 0
179 -214 0
180 -214 0
181 -214 0
182 -214 0
183 -214 0
184 -214 0
185 -214 0
186 -214 0
187 -214 0
188 -214 0
189 -214 0
190 -214 0
191 -214 0
192 -214 0
193 -214 0
194 -214 0
195 -214 0
196 -214 0
197 -214 0
198 -214 0
199 -214 0
200 -214 0
201 -214 0
202 -214 0
203 -214 0
204 -214 0
205 -214 0
206 -214 0
207 -214 0
208 -214 0
209 -214 0
210 -214 0
-132 -174 -175 -176 -177 -178 -179 -180 -181 -182 -183 -184 -185 -186 -187 -188 -189 -190 -191 -192 -193 -194 -195 -196 -197 -198 -199 -200 -201 -202 -203 -204 -205 -206 -207 -208 -209 -210 214 0
133 -215 0
175 -215 0
176 -215 0
177 -215 0
178 -215 0
179 -215 0
180 -215 0
181 -215 0
182 -215 0
183 -215 0
184 -215 0
185 -215 0
186 -215 0
187 -215 0
188 -215 0
189 -215 0
190 -215 0
191 -215 0
192 -215 0
193 -215 0
194 -215 0
195 -215 0
196 -215 0
197 -215 0
198 -215 0
199 -215 0
200 -215 0
201 -215 0
202 -215 0
203 -215 0
204 -215 0
205 -215 0
206 -215 0
207 -215 0
208 -215 0
209 -215 0
210 -215 0
-133 -175 -176 -177 -178 -179 -180 -181 -182 -183 -184 -185 -186 -187 -188 -189 -190 -191 -192 -193 -194 -195 -196 -197 -198 -199 -200 -201 -202 -203 -204 -205 -206 -207 -208 -209 -210 215 0
134 -216 0
176 -216 0
177 -216 0
178 -216 0
179 -216 0
180 -216 0
181 -216 0
182 -216 0
183 -216 0
184 -216 0
185 -216 0
186 -216 0
187 -216 0
188 -216 0
189 -216 0
190 -216 0
191 -216 0
192 -216 0
193 -216 0
194 -216 0
195 -216 0
196 -216 0
197 -216 0
198 -216 0
199 -216 0
200 -216 0
201 -216 0
202 -216 0
203 -216 0
204 -216 0
205 -216 0
206 -216 0
207 -216 0
208 -216 0
209 -216 0
210 -216 0
-134 -176 -177 -178 -179 -180 -181 -182 -183 -184 -185 -186 -187 -188 -189 -190 -191 -192 -193 -194 -195 -196 -197 -198 -199 -200 -201 -202 -203 -204 -205 -206 -207 -208 -209 -210 216 0
135 -217 0
177 -217 0
178 -217 0
179 -217 0
180 -217 0
181 -217 0
182 -217 0
183 -217 0
184 -217 0
185 -217 0
186 -217 0
187 -217 0
188 -217 0
189 -217 0
190 -217 0
191 -217 0
192 -217 0
193 -217 0
194 -217 0
195 -217 0
196 -217 0
197 -217 0
198 -217 0
199 -217 0
200 -217 0
201 -217 0
202 -217 0
203 -217 0
204 -217 0
205 -217 0
206 -217 0
207 -217 0
208 -217 0
209 -217 0
210 -217 0
-135 -177 -178 -179 -180 -181 -182 -183 -184 -185 -186 -187 -188 -189 -190 -191 -192 -193 -194 -195 -196 -197 -198 -199 -200 -201 -202 -203 -204 -205 -206 -207 -208 -209 -210 217 0
136 -218 0
178 -218 0
179 -218 0
180 -218 0
181 -218 0
182 -218 0
183 -218 0
184 -218 0
185 -218 0
186 -218 0
187 -218 0
188 -218 0
189 -218 0
190 -218 0
191 -218 0
192 -218 0
193 -218 0
194 -218 0
195 -218 0
196 -218 0
197 -218 0
198 -218 0
199 -218 0
200 -218 0
201 -218 0
202 -218 0
203 -218 0
204 -218 0
205 -218 0
206 -218 0
207 -218 0
208 -218 0
209 -218 0
210 -218 0
-136 -178 -179 -180 -181 -182 -183 -184 -185 -186 -187 -188 -189 -190 -191 -192 -193 -194 -195 -196 -197 -198 -199 -200 -201 -202 -203 -204 -205 -206 -207 -208 -209 -210 218 0
137 -219 0
179 -219 0
180 -219 0
181 -219 0
182 -219 0
183 -219 0
184 -219 0
185 -219 0
186 -219 0
187 -219 0
188 -219 0
189 -219 0
190 -219 0
191 -219 0
192 -219 0
193 -219 0
194 -219 0
195 -219 0
196 -219 0
197 -219 0
198 -219 0
199 -219 0
200 -219 0
201 -219 0
202 -219 0
203 -219 0
204 -219 0
205 -219 0
206 -219 0
207 -219 0
208 -219 0
209 -219 0
210 -219 0
-137 -179 -180 -181 -182 -183 -184 -185 -186 -187 -188 -189 -190 -191 -192 -193 -194 -195 -196 -197 -198 -199 -200 -201 -202 -203 -204 -205 -206 -207 -208 -209 -210 219 0
138 -220 0
180 -220 0
181 -220 0
182 -220 0
183 -220 0
184 -220 0
185 -220 0
186 -220 0
187 -220 0
188 -220 0
189 -220 0
190 -220 0
191 -220 0
192 -220 0
193 -220 0
194 -220 0
195 -220 0
196 -220 0
197 -220 0
198 -220 0
199 -220 0
200 -220 0
201 -220 0
202 -220 0
203 -220 0
204 -220 0
205 -220 0
206 -220 0
207 -220 0
208 -220 0
209 -220 0
210 -220 0
-138 -180 -181 -182 -183 -184 -185 -186 -187 -188 -189 -190 -191 -192 -193 -194 -195 -196 -197 -198 -199 -200 -201 -202 -203 -204 -205 -206 -207 -208 -209 -210 220 0
139 -221 0
181 -221 0
182 -221 0
183 -221 0
184 -221 0
185 -221 0
186 -221 0
187 -221 0
188 -221 0
189 -221 0
190 -221 0
191 -221 0
192 -221 0
193 -221 0
194 -221 0
195 -221 0
196 -221 0
197 -221 0
198 -221 0
199 -221 0
200 -221 0
201 -221 0
202 -221 0
203 -221 0
204 -221 0
205 -221 0
206 -221 0
207 -221 0
208 -221 0
209 -221 0
210 -221 0
-139 -181 -182 -183 -184 -185 -186 -187 -188 -189 -190 -191 -192 -193 -194 -195 -196 -197 -198 -199 -200 -201 -202 -203 -204 -205 -206 -207 -208 -209 -210 221 0
140 -222 0
182 -222 0
183 -222 0
184 -222 0
185 -222 0
186 -222 0
187 -222 0
188 -222 0
189 -222 0
190 -222 0
191 -222 0
192 -222 0
193 -222 0
194 -222 0
195 -222 0
196 -222 0
197 -222 0
198 -222 0
199 -222 0
200 -222 0
201 -222 0
202 -222 0
203 -222 0
204 -222 0
205 -222 0
206 -222 0
207 -222 0
208 -222 0
209 -222 0
210 -222 0
-140 -182 -183 -184 -185 -186 -187 -188 -189 -190 -191 -192 -193 -194 -195 -196 -197 -198 -199 -200 -201 -202 -203 -204 -205 -206 -207 -208 -209 -210 222 0
141 -223 0
183 -223 0
184 -223 0
185 -223 0
186 -223 0
187 -223 0
188 -223 0
189 -223 0
190 -223 0
191 -223 0
192 -223 0
193 -223 0
194 -223 0
195 -223 0
196 -223 0
197 -223 0
198 -223 0
199 -223 0
200 -223 0
201 -223 0
202 -223 0
203 -223 0
204 -223 0
205 -223 0
206 -223 0
207 -223 0
208 -223 0
209 -223 0
210 -223 0
-141 -183 -184 -185 -186 -187 -188 -189 -190 -191 -192 -193 -194 -195 -196 -197 -198 -199 -200 -201 -202 -203 -204 -205 -206 -207 -208 -209 -210 223 0
142 -224 0
184 -224 0
185 -224 0
186 -224 0
187 -224 0
188 -224 0
189 -224 0
190 -224 0
191 -224 0
192 -224 0
193 -224 0
194 -224 0
195 -224 0
196 -224 0
197 -224 0
198 -224 0
199 -224 0
200 -224 0
201 -224 0
202 -224 0
203 -224 0
204 -224 0
205 -224 0
206 -224 0
207 -224 0
208 -224 0
209 -224 0
210 -224 0
-142 -184 -185 -186 -187 -188 -189 -190 -191 -192 -193 -194 -195 -196 -197 -198 -199 -200 -201 -202 -203 -204 -205 -206 -207 -208 -209 -210 224 0
143 -225 0
185 -225 0
186 -225 0
187 -225 0
188 -225 0
189 -225 0
190 -225 0
191 -225 0
192 -225 0
193 -225 0
194 -225 0
195 -225 0
196 -225 0
197 -225 0
198 -225 0
199 -225 0
200 -225 0
201 -225 0
202 -225 0
203 -225 0
204 -225 0
205 -225 0
206 -225 0
207 -225 0
208 -225 0
209 -225 0
210 -225 0
-143 -185 -186 -187 -188 -189 -190 -191 -192 -193 -194 -195 -196 -197 -198 -199 -200 -201 -202 -203 -204 -205 -206 -207 -208 -209 -210 225 0
144 -226 0
186 -226 0
187 -226 0
188 -226 0
189 -226 0
190 -226 0
191 -226 0
192 -226 0
193 -226 0
194 -226 0
195 -226 0
196 -226 0
197 -226 0
198 -226 0
199 -226 0
200 -226 0
201 -226 0
202 -226 0
203 -226 0
204 -226 0
205 -226 0
206 -226 0
207 -226 0
208 -226 0
209 -226 0
210 -226 0
-144 -186 -187 -188 -189 -190 -191 -192 -193 -194 -195 -196 -197 -198 -199 -200 -201 -202 -203 -204 -205 -206 -207 -208 -209 -210 226 0
145 -227 0
187 -227 0
188 -227 0
189 -227 0
190 -227 0
191 -227 0
192 -227 0
193 -227 0
194 -227 0
195 -227 0
196 -227 0
197 -227 0
198 -227 0
199 -227 0
200 -227 0
201 -227 0
202 -227 0
203 -227 0
204 -227 0
205 -227 0
206 -227 0
207 -227 0
208 -227 0
209 -227 0
210 -227 0
-145 -187 -188 -189 -190 -191 -192 -193 -194 -195 -196 -197 -198 -199 -200 -201 -202 -203 -204 -205 -206 -207 -208 -209 -210 227 0
146 -228 0
188 -228 0
189 -228 0
190 -228 0
191 -228 0
192 -228 0
193 -228 0
194 -228 0
195 -228 0
196 -228 0
197 -228 0
198 -228 0
199 -228 0
200 -228 0
201 -228 0
202 -228 0
203 -228 0
204 -228 0
205 -228 0
206 -228 0
207 -228 0
208 -228 0
209 -228 0
210 -228 0
-146 -188 -189 -190 -191 -192 -193 -194 -195 -196 -197 -198 -199 -200 -201 -202 -203 -204 -205 -206 -207 -208 -209 -210 228 0
147 -229 0
189 -229 0
190 -229 0
191 -229 0
192 -229 0
193 -229 0
194 -229 0
195 -229 0
196 -229 0
197 -229 0
198 -229 0
199 -229 0
200 -229 0
201 -229 0
202 -229 0
203 -229 0
204 -229 0
205 -229 0
206 -229 0
207 -229 0
208 -229 0
209 -229 0
210 -229 0
-147 -189 -190 -191 -192 -193 -194 -195 -196 -197 -198 -199 -200 -201 -202 -203 -204 -205 -206 -207 -208 -209 -210 229 0
148 -230 0
190 -230 0
191 -230 0
192 -230 0
193 -230 0
194 -230 0
195 -230 0
196 -230 0
197 -230 0
198 -230 0
199 -230 0
200 -230 0
201 -230 0
202 -230 0
203 -230 0
204 -230 0
205 -230 0
206 -230 0
207 -230 0
208 -230 0
209 -230 0
210 -230 0
-148 -190 -191 -192 -193 -194 -195 -196 -197 -198 -199 -200 -201 -202 -203 -204 -205 -206 -207 -208 -209 -210 230 0
149 -231 0
191 -231 0
192 -231 0
193 -231 0
194 -231 0
195 -231 0
196 -231 0
197 -231 0
198 -231 0
199 -231 0
200 -231 0
201 -231 0
202 -231 0
203 -231 0
204 -231 0
205 -231 0
206 -231 0
207 -231 0
208 -231 0
209 -231 0
210 -231 0
-149 -191 -192 -193 -194 -195 -196 -197 -198 -199 -200 -201 -202 -203 -204 -205 -206 -207 -208 -209 -210 231 0
150 -232 0
192 -232 0
193 -232 0
194 -232 0
195 -232 0
196 -232 0
197 -232 0
198 -232 0
199 -232 0
200 -232 0
201 -232 0
202 -232 0
203 -232 0
204 -232 0
205 -232 0
206 -232 0
207 -232 0
208 -232 0
209 -232 0
210 -232 0
-150 -192 -193 -194 -195 -196 -197 -198 -199 -200 -201 -202 -203 -204 -205 -206 -207 -208 -209 -210 232 0
151 -233 0
193 -233 0
194 -233 0
195 -233 0
196 -233 0
197 -233 0
198 -233 0
199 -233 0
200 -233 0
201 -233 0
202 -233 0
203 -233 0
204 -233 0
205 -233 0
206 -233 0
207 -233 0
208 -233 0
209 -233 0
210 -233 0
-151 -193 -194 -195 -196 -197 -198 -199 -200 -201 -202 -203 -204 -205 -206 -207 -208 -209 -210 233 0
152 -234 0
194 -234 0
195 -234 0
196 -234 0
197 -234 0
198 -234 0
199 -234 0
200 -234 0
201 -234 0
202 -234 0
203 -234 0
204 -234 0
205 -234 0
206 -234 0
207 -234 0
208 -234 0
209 -234 0
210 -234 0
-152 -194 -195 -196 -197 -198 -199 -200 -201 -202 -203 -204 -205 -206 -207 -208 -209 -210 234 0
153 -235 0
195 -235 0
196 -235 0
197 -235 0
198 -235 0
199 -235 0
200 -235 0
201 -235 0
202 -235 0
203 -235 0
204 -235 0
205 -235 0
206 -235 0
207 -235 0
208 -235 0
209 -235 0
210 -235 0
-153 -195 -196 -197 -198 -199 -200 -201 -202 -203 -204 -205 -206 -207 -208 -209 -210 235 0
154 -236 0
196 -236 0
197 -236 0
198 -236 0
199 -236 0
200 -236 0
201 -236 0
202 -236 0
203 -236 0
204 -236 0
205 -236 0
206 -236 0
207 -236 0
208 -236 0
209 -236 0
210 -236 0
-154 -196 -197 -198 -199 -200 -201 -202 -203 -204 -205 -206 -207 -208 -209 -210 236 0
155 -237 0
197 -237 0
198 -237 0
199 -237 0
200 -237 0
201 -237 0
202 -237 0
203 -237 0
204 -237 0
205 -237 0
206 -237 0
207 -237 0
208 -237 0
209 -237 0
210 -237 0
-155 -197 -198 -199 -200 -201 -202 -203 -204 -205 -206 -207 -208 -209 -210 237 0
156 -238 0
198 -238 0
199 -238 0
200 -238 0
201 -238 0
202 -238 0
203 -238 0
204 -238 0
205 -238 0
206 -238 0
207 -238 0
208 -238 0
209 -238 0
210 -238 0
-156 -198 -199 -200 -201 -202 -203 -204 -205 -206 -207 -208 -209 -210 238 0
157 -239 0
199 -239 0
200 -239 0
201 -239 0
202 -239 0
203 -239 0
204 -239 0
205 -239 0
206 -239 0
207 -239 0
208 -239 0
209 -239 0
210 -239 0
-157 -199 -200 -201 -202 -203 -204 -205 -206 -207 -208 -209 -210 239 0
158 -240 0
200 -240 0
201 -240 0
202 -240 0
203 -240 0
204 -240 0
205 -240 0
206 -240 0
207 -240 0
208 -240 0
209 -240 0
210 -240 0
-158 -200 -201 -202 -203 -204 -205 -206 -207 -208 -209 -210 240 0
159 -241 0
201 -241 0
202 -241 0
203 -241 0
204 -241 0
205 -241 0
206 -241 0
207 -241 0
208 -241 0
209 -241 0
210 -241 0
-159 -201 -202 -203 -204 -205 -206 -207 -208 -209 -210 241 0
160 -242 0
202 -242 0
203 -242 0
204 -242 0
205 -242 0
206 -242 0
207 -242 0
208 -242 0
209 -242 0
210 -242 0
-160 -202 -203 -204 -205 -206 -207 -208 -209 -210 242 0
161 -243 0
203 -243 0
204 -243 0
205 -243 0
206 -243 0
207 -243 0
208 -243 0
209 -243 0
210 -243 0
-161 -203 -204 -205 -206 -207 -208 -209 -210 243 0
162 -244 0
204 -244 0
205 -244 0
206 -244 0
207 -244 0
208 -244 0
209 -244 0
210 -244 0
-162 -204 -205 -206 -207 -208 -209 -210 244 0
163 -245 0
205 -245 0
206 -245 0
207 -245 0
208 -245 0
209 -245 0
210 -245 0
-163 -205 -206 -207 -208 -209 -210 245 0
164 -246 0
206 -246 0
207 -246 0
208 -246 0
209 -246 0
210 -246 0
-164 -206 -207 -208 -209 -210 246 0
165 -247 0
207 -247 0
208 -247 0
209 -247 0
210 -247 0
-165 -207 -208 -209 -210 247 0
166 -248 0
208 -248 0
209 -248 0
210 -248 0
-166 -208 -209 -210 248 0
167 -249 0
209 -249 0
210 -249 0
-167 -209 -210 249 0
168 -250 0
210 -250 0
-168 -210 250 0
169 -251 0
-169 251 0
-211 83 0
-212 83 0
-213 83 0
-214 83 0
-215 83 0
-216 83 0
-217 83 0
-218 83 0
-219 83 0
-220 83 0
-221 83 0
-222 83 0
-223 83 0
-224 83 0
-225 83 0
-226 83 0
-227 83 0
-228 83 0
-229 83 0
-230 83 0
-231 83 0
-232 83 0
-233 83 0
-234 83 0
-235 83 0
-236 83 0
-237 83 0
-238 83 0
-239 83 0
-240 83 0
-241 83 0
-242 83 0
-243 83 0
-244 83 0
-245 83 0
-246 83 0
-247 83 0
-248 83 0
-249 83 0
-250 83 0
-251 83 0
211 212 213 214 215 216 217 218 219 220 221 222 223 224 225 226 227 228 229 230 231 232 233 234 235 236 237 238 239 240 241 242 243 244 245 246 247 248 249 250 251 -83 0
170 -84 0
171 -84 0
172 -84 0
173 -84 0
174 -84 0
175 -84 0
176 -84 0
177 -84 0
178 -84 0
179 -84 0
180 -84 0
181 -84 0
182 -84 0
183 -84 0
184 -84 0
185 -84 0
186 -84 0
187 -84 0
188 -84 0
189 -84 0
190 -84 0
191 -84 0
192 -84 0
193 -84 0
194 -84 0
195 -84 0
196 -84 0
197 -84 0
198 -84 0
199 -84 0
200 -84 0
201 -84 0
202 -84 0
203 -84 0
204 -84 0
205 -84 0
206 -84 0
207 -84 0
208 -84 0
209 -84 0
210 -84 0
-170 -171 -172 -173 -174 -175 -176 -177 -178 -179 -180 -181 -182 -183 -184 -185 -186 -187 -188 -189 -190 -191 -192 -193 -194 -195 -196 -197 -198 -199 -200 -201 -202 -203 -204 -205 -206 -207 -208 -209 -210 84 0
-83 -85 0
-84 -85 0
83 84 85 0
